c created by edge2cnf
p cnf 500 3100
-1 -2 0
-1 -3 0
-1 -4 0
-1 -5 0
-2 -3 0
-2 -4 0
-2 -5 0
-3 -4 0
-3 -5 0
-4 -5 0
1 2 3 4 5 0
-6 -7 0
-6 -8 0
-6 -9 0
-6 -10 0
-7 -8 0
-7 -9 0
-7 -10 0
-8 -9 0
-8 -10 0
-9 -10 0
6 7 8 9 10 0
-11 -12 0
-11 -13 0
-11 -14 0
-11 -15 0
-12 -13 0
-12 -14 0
-12 -15 0
-13 -14 0
-13 -15 0
-14 -15 0
11 12 13 14 15 0
-16 -17 0
-16 -18 0
-16 -19 0
-16 -20 0
-17 -18 0
-17 -19 0
-17 -20 0
-18 -19 0
-18 -20 0
-19 -20 0
16 17 18 19 20 0
-21 -22 0
-21 -23 0
-21 -24 0
-21 -25 0
-22 -23 0
-22 -24 0
-22 -25 0
-23 -24 0
-23 -25 0
-24 -25 0
21 22 23 24 25 0
-26 -27 0
-26 -28 0
-26 -29 0
-26 -30 0
-27 -28 0
-27 -29 0
-27 -30 0
-28 -29 0
-28 -30 0
-29 -30 0
26 27 28 29 30 0
-31 -32 0
-31 -33 0
-31 -34 0
-31 -35 0
-32 -33 0
-32 -34 0
-32 -35 0
-33 -34 0
-33 -35 0
-34 -35 0
31 32 33 34 35 0
-36 -37 0
-36 -38 0
-36 -39 0
-36 -40 0
-37 -38 0
-37 -39 0
-37 -40 0
-38 -39 0
-38 -40 0
-39 -40 0
36 37 38 39 40 0
-41 -42 0
-41 -43 0
-41 -44 0
-41 -45 0
-42 -43 0
-42 -44 0
-42 -45 0
-43 -44 0
-43 -45 0
-44 -45 0
41 42 43 44 45 0
-46 -47 0
-46 -48 0
-46 -49 0
-46 -50 0
-47 -48 0
-47 -49 0
-47 -50 0
-48 -49 0
-48 -50 0
-49 -50 0
46 47 48 49 50 0
-51 -52 0
-51 -53 0
-51 -54 0
-51 -55 0
-52 -53 0
-52 -54 0
-52 -55 0
-53 -54 0
-53 -55 0
-54 -55 0
51 52 53 54 55 0
-56 -57 0
-56 -58 0
-56 -59 0
-56 -60 0
-57 -58 0
-57 -59 0
-57 -60 0
-58 -59 0
-58 -60 0
-59 -60 0
56 57 58 59 60 0
-61 -62 0
-61 -63 0
-61 -64 0
-61 -65 0
-62 -63 0
-62 -64 0
-62 -65 0
-63 -64 0
-63 -65 0
-64 -65 0
61 62 63 64 65 0
-66 -67 0
-66 -68 0
-66 -69 0
-66 -70 0
-67 -68 0
-67 -69 0
-67 -70 0
-68 -69 0
-68 -70 0
-69 -70 0
66 67 68 69 70 0
-71 -72 0
-71 -73 0
-71 -74 0
-71 -75 0
-72 -73 0
-72 -74 0
-72 -75 0
-73 -74 0
-73 -75 0
-74 -75 0
71 72 73 74 75 0
-76 -77 0
-76 -78 0
-76 -79 0
-76 -80 0
-77 -78 0
-77 -79 0
-77 -80 0
-78 -79 0
-78 -80 0
-79 -80 0
76 77 78 79 80 0
-81 -82 0
-81 -83 0
-81 -84 0
-81 -85 0
-82 -83 0
-82 -84 0
-82 -85 0
-83 -84 0
-83 -85 0
-84 -85 0
81 82 83 84 85 0
-86 -87 0
-86 -88 0
-86 -89 0
-86 -90 0
-87 -88 0
-87 -89 0
-87 -90 0
-88 -89 0
-88 -90 0
-89 -90 0
86 87 88 89 90 0
-91 -92 0
-91 -93 0
-91 -94 0
-91 -95 0
-92 -93 0
-92 -94 0
-92 -95 0
-93 -94 0
-93 -95 0
-94 -95 0
91 92 93 94 95 0
-96 -97 0
-96 -98 0
-96 -99 0
-96 -100 0
-97 -98 0
-97 -99 0
-97 -100 0
-98 -99 0
-98 -100 0
-99 -100 0
96 97 98 99 100 0
-101 -102 0
-101 -103 0
-101 -104 0
-101 -105 0
-102 -103 0
-102 -104 0
-102 -105 0
-103 -104 0
-103 -105 0
-104 -105 0
101 102 103 104 105 0
-106 -107 0
-106 -108 0
-106 -109 0
-106 -110 0
-107 -108 0
-107 -109 0
-107 -110 0
-108 -109 0
-108 -110 0
-109 -110 0
106 107 108 109 110 0
-111 -112 0
-111 -113 0
-111 -114 0
-111 -115 0
-112 -113 0
-112 -114 0
-112 -115 0
-113 -114 0
-113 -115 0
-114 -115 0
111 112 113 114 115 0
-116 -117 0
-116 -118 0
-116 -119 0
-116 -120 0
-117 -118 0
-117 -119 0
-117 -120 0
-118 -119 0
-118 -120 0
-119 -120 0
116 117 118 119 120 0
-121 -122 0
-121 -123 0
-121 -124 0
-121 -125 0
-122 -123 0
-122 -124 0
-122 -125 0
-123 -124 0
-123 -125 0
-124 -125 0
121 122 123 124 125 0
-126 -127 0
-126 -128 0
-126 -129 0
-126 -130 0
-127 -128 0
-127 -129 0
-127 -130 0
-128 -129 0
-128 -130 0
-129 -130 0
126 127 128 129 130 0
-131 -132 0
-131 -133 0
-131 -134 0
-131 -135 0
-132 -133 0
-132 -134 0
-132 -135 0
-133 -134 0
-133 -135 0
-134 -135 0
131 132 133 134 135 0
-136 -137 0
-136 -138 0
-136 -139 0
-136 -140 0
-137 -138 0
-137 -139 0
-137 -140 0
-138 -139 0
-138 -140 0
-139 -140 0
136 137 138 139 140 0
-141 -142 0
-141 -143 0
-141 -144 0
-141 -145 0
-142 -143 0
-142 -144 0
-142 -145 0
-143 -144 0
-143 -145 0
-144 -145 0
141 142 143 144 145 0
-146 -147 0
-146 -148 0
-146 -149 0
-146 -150 0
-147 -148 0
-147 -149 0
-147 -150 0
-148 -149 0
-148 -150 0
-149 -150 0
146 147 148 149 150 0
-151 -152 0
-151 -153 0
-151 -154 0
-151 -155 0
-152 -153 0
-152 -154 0
-152 -155 0
-153 -154 0
-153 -155 0
-154 -155 0
151 152 153 154 155 0
-156 -157 0
-156 -158 0
-156 -159 0
-156 -160 0
-157 -158 0
-157 -159 0
-157 -160 0
-158 -159 0
-158 -160 0
-159 -160 0
156 157 158 159 160 0
-161 -162 0
-161 -163 0
-161 -164 0
-161 -165 0
-162 -163 0
-162 -164 0
-162 -165 0
-163 -164 0
-163 -165 0
-164 -165 0
161 162 163 164 165 0
-166 -167 0
-166 -168 0
-166 -169 0
-166 -170 0
-167 -168 0
-167 -169 0
-167 -170 0
-168 -169 0
-168 -170 0
-169 -170 0
166 167 168 169 170 0
-171 -172 0
-171 -173 0
-171 -174 0
-171 -175 0
-172 -173 0
-172 -174 0
-172 -175 0
-173 -174 0
-173 -175 0
-174 -175 0
171 172 173 174 175 0
-176 -177 0
-176 -178 0
-176 -179 0
-176 -180 0
-177 -178 0
-177 -179 0
-177 -180 0
-178 -179 0
-178 -180 0
-179 -180 0
176 177 178 179 180 0
-181 -182 0
-181 -183 0
-181 -184 0
-181 -185 0
-182 -183 0
-182 -184 0
-182 -185 0
-183 -184 0
-183 -185 0
-184 -185 0
181 182 183 184 185 0
-186 -187 0
-186 -188 0
-186 -189 0
-186 -190 0
-187 -188 0
-187 -189 0
-187 -190 0
-188 -189 0
-188 -190 0
-189 -190 0
186 187 188 189 190 0
-191 -192 0
-191 -193 0
-191 -194 0
-191 -195 0
-192 -193 0
-192 -194 0
-192 -195 0
-193 -194 0
-193 -195 0
-194 -195 0
191 192 193 194 195 0
-196 -197 0
-196 -198 0
-196 -199 0
-196 -200 0
-197 -198 0
-197 -199 0
-197 -200 0
-198 -199 0
-198 -200 0
-199 -200 0
196 197 198 199 200 0
-201 -202 0
-201 -203 0
-201 -204 0
-201 -205 0
-202 -203 0
-202 -204 0
-202 -205 0
-203 -204 0
-203 -205 0
-204 -205 0
201 202 203 204 205 0
-206 -207 0
-206 -208 0
-206 -209 0
-206 -210 0
-207 -208 0
-207 -209 0
-207 -210 0
-208 -209 0
-208 -210 0
-209 -210 0
206 207 208 209 210 0
-211 -212 0
-211 -213 0
-211 -214 0
-211 -215 0
-212 -213 0
-212 -214 0
-212 -215 0
-213 -214 0
-213 -215 0
-214 -215 0
211 212 213 214 215 0
-216 -217 0
-216 -218 0
-216 -219 0
-216 -220 0
-217 -218 0
-217 -219 0
-217 -220 0
-218 -219 0
-218 -220 0
-219 -220 0
216 217 218 219 220 0
-221 -222 0
-221 -223 0
-221 -224 0
-221 -225 0
-222 -223 0
-222 -224 0
-222 -225 0
-223 -224 0
-223 -225 0
-224 -225 0
221 222 223 224 225 0
-226 -227 0
-226 -228 0
-226 -229 0
-226 -230 0
-227 -228 0
-227 -229 0
-227 -230 0
-228 -229 0
-228 -230 0
-229 -230 0
226 227 228 229 230 0
-231 -232 0
-231 -233 0
-231 -234 0
-231 -235 0
-232 -233 0
-232 -234 0
-232 -235 0
-233 -234 0
-233 -235 0
-234 -235 0
231 232 233 234 235 0
-236 -237 0
-236 -238 0
-236 -239 0
-236 -240 0
-237 -238 0
-237 -239 0
-237 -240 0
-238 -239 0
-238 -240 0
-239 -240 0
236 237 238 239 240 0
-241 -242 0
-241 -243 0
-241 -244 0
-241 -245 0
-242 -243 0
-242 -244 0
-242 -245 0
-243 -244 0
-243 -245 0
-244 -245 0
241 242 243 244 245 0
-246 -247 0
-246 -248 0
-246 -249 0
-246 -250 0
-247 -248 0
-247 -249 0
-247 -250 0
-248 -249 0
-248 -250 0
-249 -250 0
246 247 248 249 250 0
-251 -252 0
-251 -253 0
-251 -254 0
-251 -255 0
-252 -253 0
-252 -254 0
-252 -255 0
-253 -254 0
-253 -255 0
-254 -255 0
251 252 253 254 255 0
-256 -257 0
-256 -258 0
-256 -259 0
-256 -260 0
-257 -258 0
-257 -259 0
-257 -260 0
-258 -259 0
-258 -260 0
-259 -260 0
256 257 258 259 260 0
-261 -262 0
-261 -263 0
-261 -264 0
-261 -265 0
-262 -263 0
-262 -264 0
-262 -265 0
-263 -264 0
-263 -265 0
-264 -265 0
261 262 263 264 265 0
-266 -267 0
-266 -268 0
-266 -269 0
-266 -270 0
-267 -268 0
-267 -269 0
-267 -270 0
-268 -269 0
-268 -270 0
-269 -270 0
266 267 268 269 270 0
-271 -272 0
-271 -273 0
-271 -274 0
-271 -275 0
-272 -273 0
-272 -274 0
-272 -275 0
-273 -274 0
-273 -275 0
-274 -275 0
271 272 273 274 275 0
-276 -277 0
-276 -278 0
-276 -279 0
-276 -280 0
-277 -278 0
-277 -279 0
-277 -280 0
-278 -279 0
-278 -280 0
-279 -280 0
276 277 278 279 280 0
-281 -282 0
-281 -283 0
-281 -284 0
-281 -285 0
-282 -283 0
-282 -284 0
-282 -285 0
-283 -284 0
-283 -285 0
-284 -285 0
281 282 283 284 285 0
-286 -287 0
-286 -288 0
-286 -289 0
-286 -290 0
-287 -288 0
-287 -289 0
-287 -290 0
-288 -289 0
-288 -290 0
-289 -290 0
286 287 288 289 290 0
-291 -292 0
-291 -293 0
-291 -294 0
-291 -295 0
-292 -293 0
-292 -294 0
-292 -295 0
-293 -294 0
-293 -295 0
-294 -295 0
291 292 293 294 295 0
-296 -297 0
-296 -298 0
-296 -299 0
-296 -300 0
-297 -298 0
-297 -299 0
-297 -300 0
-298 -299 0
-298 -300 0
-299 -300 0
296 297 298 299 300 0
-301 -302 0
-301 -303 0
-301 -304 0
-301 -305 0
-302 -303 0
-302 -304 0
-302 -305 0
-303 -304 0
-303 -305 0
-304 -305 0
301 302 303 304 305 0
-306 -307 0
-306 -308 0
-306 -309 0
-306 -310 0
-307 -308 0
-307 -309 0
-307 -310 0
-308 -309 0
-308 -310 0
-309 -310 0
306 307 308 309 310 0
-311 -312 0
-311 -313 0
-311 -314 0
-311 -315 0
-312 -313 0
-312 -314 0
-312 -315 0
-313 -314 0
-313 -315 0
-314 -315 0
311 312 313 314 315 0
-316 -317 0
-316 -318 0
-316 -319 0
-316 -320 0
-317 -318 0
-317 -319 0
-317 -320 0
-318 -319 0
-318 -320 0
-319 -320 0
316 317 318 319 320 0
-321 -322 0
-321 -323 0
-321 -324 0
-321 -325 0
-322 -323 0
-322 -324 0
-322 -325 0
-323 -324 0
-323 -325 0
-324 -325 0
321 322 323 324 325 0
-326 -327 0
-326 -328 0
-326 -329 0
-326 -330 0
-327 -328 0
-327 -329 0
-327 -330 0
-328 -329 0
-328 -330 0
-329 -330 0
326 327 328 329 330 0
-331 -332 0
-331 -333 0
-331 -334 0
-331 -335 0
-332 -333 0
-332 -334 0
-332 -335 0
-333 -334 0
-333 -335 0
-334 -335 0
331 332 333 334 335 0
-336 -337 0
-336 -338 0
-336 -339 0
-336 -340 0
-337 -338 0
-337 -339 0
-337 -340 0
-338 -339 0
-338 -340 0
-339 -340 0
336 337 338 339 340 0
-341 -342 0
-341 -343 0
-341 -344 0
-341 -345 0
-342 -343 0
-342 -344 0
-342 -345 0
-343 -344 0
-343 -345 0
-344 -345 0
341 342 343 344 345 0
-346 -347 0
-346 -348 0
-346 -349 0
-346 -350 0
-347 -348 0
-347 -349 0
-347 -350 0
-348 -349 0
-348 -350 0
-349 -350 0
346 347 348 349 350 0
-351 -352 0
-351 -353 0
-351 -354 0
-351 -355 0
-352 -353 0
-352 -354 0
-352 -355 0
-353 -354 0
-353 -355 0
-354 -355 0
351 352 353 354 355 0
-356 -357 0
-356 -358 0
-356 -359 0
-356 -360 0
-357 -358 0
-357 -359 0
-357 -360 0
-358 -359 0
-358 -360 0
-359 -360 0
356 357 358 359 360 0
-361 -362 0
-361 -363 0
-361 -364 0
-361 -365 0
-362 -363 0
-362 -364 0
-362 -365 0
-363 -364 0
-363 -365 0
-364 -365 0
361 362 363 364 365 0
-366 -367 0
-366 -368 0
-366 -369 0
-366 -370 0
-367 -368 0
-367 -369 0
-367 -370 0
-368 -369 0
-368 -370 0
-369 -370 0
366 367 368 369 370 0
-371 -372 0
-371 -373 0
-371 -374 0
-371 -375 0
-372 -373 0
-372 -374 0
-372 -375 0
-373 -374 0
-373 -375 0
-374 -375 0
371 372 373 374 375 0
-376 -377 0
-376 -378 0
-376 -379 0
-376 -380 0
-377 -378 0
-377 -379 0
-377 -380 0
-378 -379 0
-378 -380 0
-379 -380 0
376 377 378 379 380 0
-381 -382 0
-381 -383 0
-381 -384 0
-381 -385 0
-382 -383 0
-382 -384 0
-382 -385 0
-383 -384 0
-383 -385 0
-384 -385 0
381 382 383 384 385 0
-386 -387 0
-386 -388 0
-386 -389 0
-386 -390 0
-387 -388 0
-387 -389 0
-387 -390 0
-388 -389 0
-388 -390 0
-389 -390 0
386 387 388 389 390 0
-391 -392 0
-391 -393 0
-391 -394 0
-391 -395 0
-392 -393 0
-392 -394 0
-392 -395 0
-393 -394 0
-393 -395 0
-394 -395 0
391 392 393 394 395 0
-396 -397 0
-396 -398 0
-396 -399 0
-396 -400 0
-397 -398 0
-397 -399 0
-397 -400 0
-398 -399 0
-398 -400 0
-399 -400 0
396 397 398 399 400 0
-401 -402 0
-401 -403 0
-401 -404 0
-401 -405 0
-402 -403 0
-402 -404 0
-402 -405 0
-403 -404 0
-403 -405 0
-404 -405 0
401 402 403 404 405 0
-406 -407 0
-406 -408 0
-406 -409 0
-406 -410 0
-407 -408 0
-407 -409 0
-407 -410 0
-408 -409 0
-408 -410 0
-409 -410 0
406 407 408 409 410 0
-411 -412 0
-411 -413 0
-411 -414 0
-411 -415 0
-412 -413 0
-412 -414 0
-412 -415 0
-413 -414 0
-413 -415 0
-414 -415 0
411 412 413 414 415 0
-416 -417 0
-416 -418 0
-416 -419 0
-416 -420 0
-417 -418 0
-417 -419 0
-417 -420 0
-418 -419 0
-418 -420 0
-419 -420 0
416 417 418 419 420 0
-421 -422 0
-421 -423 0
-421 -424 0
-421 -425 0
-422 -423 0
-422 -424 0
-422 -425 0
-423 -424 0
-423 -425 0
-424 -425 0
421 422 423 424 425 0
-426 -427 0
-426 -428 0
-426 -429 0
-426 -430 0
-427 -428 0
-427 -429 0
-427 -430 0
-428 -429 0
-428 -430 0
-429 -430 0
426 427 428 429 430 0
-431 -432 0
-431 -433 0
-431 -434 0
-431 -435 0
-432 -433 0
-432 -434 0
-432 -435 0
-433 -434 0
-433 -435 0
-434 -435 0
431 432 433 434 435 0
-436 -437 0
-436 -438 0
-436 -439 0
-436 -440 0
-437 -438 0
-437 -439 0
-437 -440 0
-438 -439 0
-438 -440 0
-439 -440 0
436 437 438 439 440 0
-441 -442 0
-441 -443 0
-441 -444 0
-441 -445 0
-442 -443 0
-442 -444 0
-442 -445 0
-443 -444 0
-443 -445 0
-444 -445 0
441 442 443 444 445 0
-446 -447 0
-446 -448 0
-446 -449 0
-446 -450 0
-447 -448 0
-447 -449 0
-447 -450 0
-448 -449 0
-448 -450 0
-449 -450 0
446 447 448 449 450 0
-451 -452 0
-451 -453 0
-451 -454 0
-451 -455 0
-452 -453 0
-452 -454 0
-452 -455 0
-453 -454 0
-453 -455 0
-454 -455 0
451 452 453 454 455 0
-456 -457 0
-456 -458 0
-456 -459 0
-456 -460 0
-457 -458 0
-457 -459 0
-457 -460 0
-458 -459 0
-458 -460 0
-459 -460 0
456 457 458 459 460 0
-461 -462 0
-461 -463 0
-461 -464 0
-461 -465 0
-462 -463 0
-462 -464 0
-462 -465 0
-463 -464 0
-463 -465 0
-464 -465 0
461 462 463 464 465 0
-466 -467 0
-466 -468 0
-466 -469 0
-466 -470 0
-467 -468 0
-467 -469 0
-467 -470 0
-468 -469 0
-468 -470 0
-469 -470 0
466 467 468 469 470 0
-471 -472 0
-471 -473 0
-471 -474 0
-471 -475 0
-472 -473 0
-472 -474 0
-472 -475 0
-473 -474 0
-473 -475 0
-474 -475 0
471 472 473 474 475 0
-476 -477 0
-476 -478 0
-476 -479 0
-476 -480 0
-477 -478 0
-477 -479 0
-477 -480 0
-478 -479 0
-478 -480 0
-479 -480 0
476 477 478 479 480 0
-481 -482 0
-481 -483 0
-481 -484 0
-481 -485 0
-482 -483 0
-482 -484 0
-482 -485 0
-483 -484 0
-483 -485 0
-484 -485 0
481 482 483 484 485 0
-486 -487 0
-486 -488 0
-486 -489 0
-486 -490 0
-487 -488 0
-487 -489 0
-487 -490 0
-488 -489 0
-488 -490 0
-489 -490 0
486 487 488 489 490 0
-491 -492 0
-491 -493 0
-491 -494 0
-491 -495 0
-492 -493 0
-492 -494 0
-492 -495 0
-493 -494 0
-493 -495 0
-494 -495 0
491 492 493 494 495 0
-496 -497 0
-496 -498 0
-496 -499 0
-496 -500 0
-497 -498 0
-497 -499 0
-497 -500 0
-498 -499 0
-498 -500 0
-499 -500 0
496 497 498 499 500 0
-16 -21 0
-17 -22 0
-18 -23 0
-19 -24 0
-20 -25 0
-16 -26 0
-17 -27 0
-18 -28 0
-19 -29 0
-20 -30 0
-21 -36 0
-22 -37 0
-23 -38 0
-24 -39 0
-25 -40 0
-26 -31 0
-27 -32 0
-28 -33 0
-29 -34 0
-30 -35 0
-26 -41 0
-27 -42 0
-28 -43 0
-29 -44 0
-30 -45 0
-31 -51 0
-32 -52 0
-33 -53 0
-34 -54 0
-35 -55 0
-56 -76 0
-57 -77 0
-58 -78 0
-59 -79 0
-60 -80 0
-66 -71 0
-67 -72 0
-68 -73 0
-69 -74 0
-70 -75 0
-66 -86 0
-67 -87 0
-68 -88 0
-69 -89 0
-70 -90 0
-76 -86 0
-77 -87 0
-78 -88 0
-79 -89 0
-80 -90 0
-86 -91 0
-87 -92 0
-88 -93 0
-89 -94 0
-90 -95 0
-86 -106 0
-87 -107 0
-88 -108 0
-89 -109 0
-90 -110 0
-106 -111 0
-107 -112 0
-108 -113 0
-109 -114 0
-110 -115 0
-106 -116 0
-107 -117 0
-108 -118 0
-109 -119 0
-110 -120 0
-121 -126 0
-122 -127 0
-123 -128 0
-124 -129 0
-125 -130 0
-146 -156 0
-147 -157 0
-148 -158 0
-149 -159 0
-150 -160 0
-186 -196 0
-187 -197 0
-188 -198 0
-189 -199 0
-190 -200 0
-206 -226 0
-207 -227 0
-208 -228 0
-209 -229 0
-210 -230 0
-211 -216 0
-212 -217 0
-213 -218 0
-214 -219 0
-215 -220 0
-216 -226 0
-217 -227 0
-218 -228 0
-219 -229 0
-220 -230 0
-231 -241 0
-232 -242 0
-233 -243 0
-234 -244 0
-235 -245 0
-276 -281 0
-277 -282 0
-278 -283 0
-279 -284 0
-280 -285 0
-286 -291 0
-287 -292 0
-288 -293 0
-289 -294 0
-290 -295 0
-301 -321 0
-302 -322 0
-303 -323 0
-304 -324 0
-305 -325 0
-326 -331 0
-327 -332 0
-328 -333 0
-329 -334 0
-330 -335 0
-331 -346 0
-332 -347 0
-333 -348 0
-334 -349 0
-335 -350 0
-351 -356 0
-352 -357 0
-353 -358 0
-354 -359 0
-355 -360 0
-366 -376 0
-367 -377 0
-368 -378 0
-369 -379 0
-370 -380 0
-366 -386 0
-367 -387 0
-368 -388 0
-369 -389 0
-370 -390 0
-376 -381 0
-377 -382 0
-378 -383 0
-379 -384 0
-380 -385 0
-376 -386 0
-377 -387 0
-378 -388 0
-379 -389 0
-380 -390 0
-421 -431 0
-422 -432 0
-423 -433 0
-424 -434 0
-425 -435 0
-436 -451 0
-437 -452 0
-438 -453 0
-439 -454 0
-440 -455 0
-1 -486 0
-2 -487 0
-3 -488 0
-4 -489 0
-5 -490 0
-181 -186 0
-182 -187 0
-183 -188 0
-184 -189 0
-185 -190 0
-286 -306 0
-287 -307 0
-288 -308 0
-289 -309 0
-290 -310 0
-221 -226 0
-222 -227 0
-223 -228 0
-224 -229 0
-225 -230 0
-116 -131 0
-117 -132 0
-118 -133 0
-119 -134 0
-120 -135 0
-411 -431 0
-412 -432 0
-413 -433 0
-414 -434 0
-415 -435 0
-31 -36 0
-32 -37 0
-33 -38 0
-34 -39 0
-35 -40 0
-266 -271 0
-267 -272 0
-268 -273 0
-269 -274 0
-270 -275 0
-101 -116 0
-102 -117 0
-103 -118 0
-104 -119 0
-105 -120 0
-356 -361 0
-357 -362 0
-358 -363 0
-359 -364 0
-360 -365 0
-26 -36 0
-27 -37 0
-28 -38 0
-29 -39 0
-30 -40 0
-11 -26 0
-12 -27 0
-13 -28 0
-14 -29 0
-15 -30 0
-311 -316 0
-312 -317 0
-313 -318 0
-314 -319 0
-315 -320 0
-346 -356 0
-347 -357 0
-348 -358 0
-349 -359 0
-350 -360 0
-151 -171 0
-152 -172 0
-153 -173 0
-154 -174 0
-155 -175 0
-401 -406 0
-402 -407 0
-403 -408 0
-404 -409 0
-405 -410 0
-456 -461 0
-457 -462 0
-458 -463 0
-459 -464 0
-460 -465 0
-126 -131 0
-127 -132 0
-128 -133 0
-129 -134 0
-130 -135 0
-391 -396 0
-392 -397 0
-393 -398 0
-394 -399 0
-395 -400 0
-91 -111 0
-92 -112 0
-93 -113 0
-94 -114 0
-95 -115 0
-241 -261 0
-242 -262 0
-243 -263 0
-244 -264 0
-245 -265 0
-191 -196 0
-192 -197 0
-193 -198 0
-194 -199 0
-195 -200 0
-21 -41 0
-22 -42 0
-23 -43 0
-24 -44 0
-25 -45 0
-491 -496 0
-492 -497 0
-493 -498 0
-494 -499 0
-495 -500 0
-281 -291 0
-282 -292 0
-283 -293 0
-284 -294 0
-285 -295 0
-186 -201 0
-187 -202 0
-188 -203 0
-189 -204 0
-190 -205 0
-331 -351 0
-332 -352 0
-333 -353 0
-334 -354 0
-335 -355 0
-291 -301 0
-292 -302 0
-293 -303 0
-294 -304 0
-295 -305 0
-236 -256 0
-237 -257 0
-238 -258 0
-239 -259 0
-240 -260 0
-71 -91 0
-72 -92 0
-73 -93 0
-74 -94 0
-75 -95 0
-426 -436 0
-427 -437 0
-428 -438 0
-429 -439 0
-430 -440 0
-316 -331 0
-317 -332 0
-318 -333 0
-319 -334 0
-320 -335 0
-281 -301 0
-282 -302 0
-283 -303 0
-284 -304 0
-285 -305 0
-101 -121 0
-102 -122 0
-103 -123 0
-104 -124 0
-105 -125 0
-121 -136 0
-122 -137 0
-123 -138 0
-124 -139 0
-125 -140 0
-151 -156 0
-152 -157 0
-153 -158 0
-154 -159 0
-155 -160 0
-276 -296 0
-277 -297 0
-278 -298 0
-279 -299 0
-280 -300 0
-141 -151 0
-142 -152 0
-143 -153 0
-144 -154 0
-145 -155 0
-306 -311 0
-307 -312 0
-308 -313 0
-309 -314 0
-310 -315 0
-391 -406 0
-392 -407 0
-393 -408 0
-394 -409 0
-395 -410 0
-6 -486 0
-7 -487 0
-8 -488 0
-9 -489 0
-10 -490 0
-206 -221 0
-207 -222 0
-208 -223 0
-209 -224 0
-210 -225 0
-6 -496 0
-7 -497 0
-8 -498 0
-9 -499 0
-10 -500 0
-231 -236 0
-232 -237 0
-233 -238 0
-234 -239 0
-235 -240 0
-396 -401 0
-397 -402 0
-398 -403 0
-399 -404 0
-400 -405 0
-56 -66 0
-57 -67 0
-58 -68 0
-59 -69 0
-60 -70 0
-146 -161 0
-147 -162 0
-148 -163 0
-149 -164 0
-150 -165 0
-386 -391 0
-387 -392 0
-388 -393 0
-389 -394 0
-390 -395 0
-476 -496 0
-477 -497 0
-478 -498 0
-479 -499 0
-480 -500 0
-176 -196 0
-177 -197 0
-178 -198 0
-179 -199 0
-180 -200 0
-246 -261 0
-247 -262 0
-248 -263 0
-249 -264 0
-250 -265 0
-146 -151 0
-147 -152 0
-148 -153 0
-149 -154 0
-150 -155 0
-401 -421 0
-402 -422 0
-403 -423 0
-404 -424 0
-405 -425 0
-426 -441 0
-427 -442 0
-428 -443 0
-429 -444 0
-430 -445 0
-166 -181 0
-167 -182 0
-168 -183 0
-169 -184 0
-170 -185 0
-381 -391 0
-382 -392 0
-383 -393 0
-384 -394 0
-385 -395 0
-201 -211 0
-202 -212 0
-203 -213 0
-204 -214 0
-205 -215 0
-236 -246 0
-237 -247 0
-238 -248 0
-239 -249 0
-240 -250 0
-341 -356 0
-342 -357 0
-343 -358 0
-344 -359 0
-345 -360 0
-446 -461 0
-447 -462 0
-448 -463 0
-449 -464 0
-450 -465 0
-161 -166 0
-162 -167 0
-163 -168 0
-164 -169 0
-165 -170 0
-281 -296 0
-282 -297 0
-283 -298 0
-284 -299 0
-285 -300 0
-316 -326 0
-317 -327 0
-318 -328 0
-319 -329 0
-320 -330 0
-216 -236 0
-217 -237 0
-218 -238 0
-219 -239 0
-220 -240 0
-466 -481 0
-467 -482 0
-468 -483 0
-469 -484 0
-470 -485 0
-316 -336 0
-317 -337 0
-318 -338 0
-319 -339 0
-320 -340 0
-91 -96 0
-92 -97 0
-93 -98 0
-94 -99 0
-95 -100 0
-26 -46 0
-27 -47 0
-28 -48 0
-29 -49 0
-30 -50 0
-416 -426 0
-417 -427 0
-418 -428 0
-419 -429 0
-420 -430 0
-191 -201 0
-192 -202 0
-193 -203 0
-194 -204 0
-195 -205 0
-271 -276 0
-272 -277 0
-273 -278 0
-274 -279 0
-275 -280 0
-76 -91 0
-77 -92 0
-78 -93 0
-79 -94 0
-80 -95 0
-111 -116 0
-112 -117 0
-113 -118 0
-114 -119 0
-115 -120 0
-416 -431 0
-417 -432 0
-418 -433 0
-419 -434 0
-420 -435 0
-366 -371 0
-367 -372 0
-368 -373 0
-369 -374 0
-370 -375 0
-106 -126 0
-107 -127 0
-108 -128 0
-109 -129 0
-110 -130 0
-66 -76 0
-67 -77 0
-68 -78 0
-69 -79 0
-70 -80 0
-196 -206 0
-197 -207 0
-198 -208 0
-199 -209 0
-200 -210 0
-321 -341 0
-322 -342 0
-323 -343 0
-324 -344 0
-325 -345 0
-416 -421 0
-417 -422 0
-418 -423 0
-419 -424 0
-420 -425 0
-101 -106 0
-102 -107 0
-103 -108 0
-104 -109 0
-105 -110 0
-1 -6 0
-2 -7 0
-3 -8 0
-4 -9 0
-5 -10 0
-126 -136 0
-127 -137 0
-128 -138 0
-129 -139 0
-130 -140 0
-156 -176 0
-157 -177 0
-158 -178 0
-159 -179 0
-160 -180 0
-176 -186 0
-177 -187 0
-178 -188 0
-179 -189 0
-180 -190 0
-256 -276 0
-257 -277 0
-258 -278 0
-259 -279 0
-260 -280 0
-471 -476 0
-472 -477 0
-473 -478 0
-474 -479 0
-475 -480 0
-236 -241 0
-237 -242 0
-238 -243 0
-239 -244 0
-240 -245 0
-366 -381 0
-367 -382 0
-368 -383 0
-369 -384 0
-370 -385 0
-446 -451 0
-447 -452 0
-448 -453 0
-449 -454 0
-450 -455 0
-131 -151 0
-132 -152 0
-133 -153 0
-134 -154 0
-135 -155 0
-76 -96 0
-77 -97 0
-78 -98 0
-79 -99 0
-80 -100 0
-31 -41 0
-32 -42 0
-33 -43 0
-34 -44 0
-35 -45 0
-486 -491 0
-487 -492 0
-488 -493 0
-489 -494 0
-490 -495 0
-336 -346 0
-337 -347 0
-338 -348 0
-339 -349 0
-340 -350 0
-46 -66 0
-47 -67 0
-48 -68 0
-49 -69 0
-50 -70 0
-6 -491 0
-7 -492 0
-8 -493 0
-9 -494 0
-10 -495 0
-261 -266 0
-262 -267 0
-263 -268 0
-264 -269 0
-265 -270 0
-176 -191 0
-177 -192 0
-178 -193 0
-179 -194 0
-180 -195 0
-296 -301 0
-297 -302 0
-298 -303 0
-299 -304 0
-300 -305 0
-246 -256 0
-247 -257 0
-248 -258 0
-249 -259 0
-250 -260 0
-116 -136 0
-117 -137 0
-118 -138 0
-119 -139 0
-120 -140 0
-41 -56 0
-42 -57 0
-43 -58 0
-44 -59 0
-45 -60 0
-1 -11 0
-2 -12 0
-3 -13 0
-4 -14 0
-5 -15 0
-21 -26 0
-22 -27 0
-23 -28 0
-24 -29 0
-25 -30 0
-231 -251 0
-232 -252 0
-233 -253 0
-234 -254 0
-235 -255 0
-171 -181 0
-172 -182 0
-173 -183 0
-174 -184 0
-175 -185 0
-236 -251 0
-237 -252 0
-238 -253 0
-239 -254 0
-240 -255 0
-336 -341 0
-337 -342 0
-338 -343 0
-339 -344 0
-340 -345 0
-261 -276 0
-262 -277 0
-263 -278 0
-264 -279 0
-265 -280 0
-116 -126 0
-117 -127 0
-118 -128 0
-119 -129 0
-120 -130 0
-426 -446 0
-427 -447 0
-428 -448 0
-429 -449 0
-430 -450 0
-296 -316 0
-297 -317 0
-298 -318 0
-299 -319 0
-300 -320 0
-356 -366 0
-357 -367 0
-358 -368 0
-359 -369 0
-360 -370 0
-406 -421 0
-407 -422 0
-408 -423 0
-409 -424 0
-410 -425 0
-111 -126 0
-112 -127 0
-113 -128 0
-114 -129 0
-115 -130 0
-1 -21 0
-2 -22 0
-3 -23 0
-4 -24 0
-5 -25 0
-166 -176 0
-167 -177 0
-168 -178 0
-169 -179 0
-170 -180 0
-326 -336 0
-327 -337 0
-328 -338 0
-329 -339 0
-330 -340 0
-466 -471 0
-467 -472 0
-468 -473 0
-469 -474 0
-470 -475 0
-91 -106 0
-92 -107 0
-93 -108 0
-94 -109 0
-95 -110 0
-251 -261 0
-252 -262 0
-253 -263 0
-254 -264 0
-255 -265 0
-231 -246 0
-232 -247 0
-233 -248 0
-234 -249 0
-235 -250 0
-241 -251 0
-242 -252 0
-243 -253 0
-244 -254 0
-245 -255 0
-121 -131 0
-122 -132 0
-123 -133 0
-124 -134 0
-125 -135 0
-216 -231 0
-217 -232 0
-218 -233 0
-219 -234 0
-220 -235 0
-421 -441 0
-422 -442 0
-423 -443 0
-424 -444 0
-425 -445 0
-411 -421 0
-412 -422 0
-413 -423 0
-414 -424 0
-415 -425 0
-261 -281 0
-262 -282 0
-263 -283 0
-264 -284 0
-265 -285 0
-11 -496 0
-12 -497 0
-13 -498 0
-14 -499 0
-15 -500 0
-206 -211 0
-207 -212 0
-208 -213 0
-209 -214 0
-210 -215 0
-356 -371 0
-357 -372 0
-358 -373 0
-359 -374 0
-360 -375 0
-46 -61 0
-47 -62 0
-48 -63 0
-49 -64 0
-50 -65 0
-271 -281 0
-272 -282 0
-273 -283 0
-274 -284 0
-275 -285 0
-51 -56 0
-52 -57 0
-53 -58 0
-54 -59 0
-55 -60 0
-171 -176 0
-172 -177 0
-173 -178 0
-174 -179 0
-175 -180 0
-126 -146 0
-127 -147 0
-128 -148 0
-129 -149 0
-130 -150 0
-206 -216 0
-207 -217 0
-208 -218 0
-209 -219 0
-210 -220 0
-341 -351 0
-342 -352 0
-343 -353 0
-344 -354 0
-345 -355 0
-471 -481 0
-472 -482 0
-473 -483 0
-474 -484 0
-475 -485 0
-1 -496 0
-2 -497 0
-3 -498 0
-4 -499 0
-5 -500 0
-61 -81 0
-62 -82 0
-63 -83 0
-64 -84 0
-65 -85 0
-51 -66 0
-52 -67 0
-53 -68 0
-54 -69 0
-55 -70 0
-466 -486 0
-467 -487 0
-468 -488 0
-469 -489 0
-470 -490 0
-396 -411 0
-397 -412 0
-398 -413 0
-399 -414 0
-400 -415 0
-311 -331 0
-312 -332 0
-313 -333 0
-314 -334 0
-315 -335 0
-321 -326 0
-322 -327 0
-323 -328 0
-324 -329 0
-325 -330 0
-271 -286 0
-272 -287 0
-273 -288 0
-274 -289 0
-275 -290 0
-431 -441 0
-432 -442 0
-433 -443 0
-434 -444 0
-435 -445 0
-186 -191 0
-187 -192 0
-188 -193 0
-189 -194 0
-190 -195 0
-361 -381 0
-362 -382 0
-363 -383 0
-364 -384 0
-365 -385 0
-311 -326 0
-312 -327 0
-313 -328 0
-314 -329 0
-315 -330 0
-91 -101 0
-92 -102 0
-93 -103 0
-94 -104 0
-95 -105 0
-11 -31 0
-12 -32 0
-13 -33 0
-14 -34 0
-15 -35 0
-6 -11 0
-7 -12 0
-8 -13 0
-9 -14 0
-10 -15 0
-351 -366 0
-352 -367 0
-353 -368 0
-354 -369 0
-355 -370 0
-136 -146 0
-137 -147 0
-138 -148 0
-139 -149 0
-140 -150 0
-246 -266 0
-247 -267 0
-248 -268 0
-249 -269 0
-250 -270 0
-426 -431 0
-427 -432 0
-428 -433 0
-429 -434 0
-430 -435 0
-101 -111 0
-102 -112 0
-103 -113 0
-104 -114 0
-105 -115 0
-456 -466 0
-457 -467 0
-458 -468 0
-459 -469 0
-460 -470 0
-456 -476 0
-457 -477 0
-458 -478 0
-459 -479 0
-460 -480 0
-326 -346 0
-327 -347 0
-328 -348 0
-329 -349 0
-330 -350 0
-66 -81 0
-67 -82 0
-68 -83 0
-69 -84 0
-70 -85 0
-161 -171 0
-162 -172 0
-163 -173 0
-164 -174 0
-165 -175 0
-436 -441 0
-437 -442 0
-438 -443 0
-439 -444 0
-440 -445 0
-351 -361 0
-352 -362 0
-353 -363 0
-354 -364 0
-355 -365 0
-311 -321 0
-312 -322 0
-313 -323 0
-314 -324 0
-315 -325 0
-196 -211 0
-197 -212 0
-198 -213 0
-199 -214 0
-200 -215 0
-431 -451 0
-432 -452 0
-433 -453 0
-434 -454 0
-435 -455 0
-316 -321 0
-317 -322 0
-318 -323 0
-319 -324 0
-320 -325 0
-446 -466 0
-447 -467 0
-448 -468 0
-449 -469 0
-450 -470 0
-126 -141 0
-127 -142 0
-128 -143 0
-129 -144 0
-130 -145 0
-406 -426 0
-407 -427 0
-408 -428 0
-409 -429 0
-410 -430 0
-276 -291 0
-277 -292 0
-278 -293 0
-279 -294 0
-280 -295 0
-331 -341 0
-332 -342 0
-333 -343 0
-334 -344 0
-335 -345 0
-406 -411 0
-407 -412 0
-408 -413 0
-409 -414 0
-410 -415 0
-251 -266 0
-252 -267 0
-253 -268 0
-254 -269 0
-255 -270 0
-41 -51 0
-42 -52 0
-43 -53 0
-44 -54 0
-45 -55 0
-446 -456 0
-447 -457 0
-448 -458 0
-449 -459 0
-450 -460 0
-111 -131 0
-112 -132 0
-113 -133 0
-114 -134 0
-115 -135 0
-176 -181 0
-177 -182 0
-178 -183 0
-179 -184 0
-180 -185 0
-96 -101 0
-97 -102 0
-98 -103 0
-99 -104 0
-100 -105 0
-196 -201 0
-197 -202 0
-198 -203 0
-199 -204 0
-200 -205 0
-171 -496 0
-172 -497 0
-173 -498 0
-174 -499 0
-175 -500 0
-51 -346 0
-52 -347 0
-53 -348 0
-54 -349 0
-55 -350 0
-31 -71 0
-32 -72 0
-33 -73 0
-34 -74 0
-35 -75 0
-181 -361 0
-182 -362 0
-183 -363 0
-184 -364 0
-185 -365 0
-411 -471 0
-412 -472 0
-413 -473 0
-414 -474 0
-415 -475 0
-151 -391 0
-152 -392 0
-153 -393 0
-154 -394 0
-155 -395 0
-201 -261 0
-202 -262 0
-203 -263 0
-204 -264 0
-205 -265 0
-181 -246 0
-182 -247 0
-183 -248 0
-184 -249 0
-185 -250 0
-76 -211 0
-77 -212 0
-78 -213 0
-79 -214 0
-80 -215 0
-146 -396 0
-147 -397 0
-148 -398 0
-149 -399 0
-150 -400 0
-136 -441 0
-137 -442 0
-138 -443 0
-139 -444 0
-140 -445 0
-191 -456 0
-192 -457 0
-193 -458 0
-194 -459 0
-195 -460 0
-381 -451 0
-382 -452 0
-383 -453 0
-384 -454 0
-385 -455 0
-96 -171 0
-97 -172 0
-98 -173 0
-99 -174 0
-100 -175 0
-16 -466 0
-17 -467 0
-18 -468 0
-19 -469 0
-20 -470 0
-241 -346 0
-242 -347 0
-243 -348 0
-244 -349 0
-245 -350 0
-151 -246 0
-152 -247 0
-153 -248 0
-154 -249 0
-155 -250 0
-191 -281 0
-192 -282 0
-193 -283 0
-194 -284 0
-195 -285 0
-261 -361 0
-262 -362 0
-263 -363 0
-264 -364 0
-265 -365 0
-286 -496 0
-287 -497 0
-288 -498 0
-289 -499 0
-290 -500 0
-161 -401 0
-162 -402 0
-163 -403 0
-164 -404 0
-165 -405 0
-36 -151 0
-37 -152 0
-38 -153 0
-39 -154 0
-40 -155 0
-121 -181 0
-122 -182 0
-123 -183 0
-124 -184 0
-125 -185 0
-121 -406 0
-122 -407 0
-123 -408 0
-124 -409 0
-125 -410 0
-251 -301 0
-252 -302 0
-253 -303 0
-254 -304 0
-255 -305 0
-86 -126 0
-87 -127 0
-88 -128 0
-89 -129 0
-90 -130 0
-91 -196 0
-92 -197 0
-93 -198 0
-94 -199 0
-95 -200 0
-371 -396 0
-372 -397 0
-373 -398 0
-374 -399 0
-375 -400 0
-56 -456 0
-57 -457 0
-58 -458 0
-59 -459 0
-60 -460 0
-131 -176 0
-132 -177 0
-133 -178 0
-134 -179 0
-135 -180 0
-11 -231 0
-12 -232 0
-13 -233 0
-14 -234 0
-15 -235 0
-216 -266 0
-217 -267 0
-218 -268 0
-219 -269 0
-220 -270 0
-21 -66 0
-22 -67 0
-23 -68 0
-24 -69 0
-25 -70 0
-156 -276 0
-157 -277 0
-158 -278 0
-159 -279 0
-160 -280 0
-281 -411 0
-282 -412 0
-283 -413 0
-284 -414 0
-285 -415 0
-16 -51 0
-17 -52 0
-18 -53 0
-19 -54 0
-20 -55 0
-246 -366 0
-247 -367 0
-248 -368 0
-249 -369 0
-250 -370 0
-216 -321 0
-217 -322 0
-218 -323 0
-219 -324 0
-220 -325 0
-81 -341 0
-82 -342 0
-83 -343 0
-84 -344 0
-85 -345 0
-386 -426 0
-387 -427 0
-388 -428 0
-389 -429 0
-390 -430 0
-16 -411 0
-17 -412 0
-18 -413 0
-19 -414 0
-20 -415 0
-181 -266 0
-182 -267 0
-183 -268 0
-184 -269 0
-185 -270 0
-161 -426 0
-162 -427 0
-163 -428 0
-164 -429 0
-165 -430 0
-311 -436 0
-312 -437 0
-313 -438 0
-314 -439 0
-315 -440 0
-191 -406 0
-192 -407 0
-193 -408 0
-194 -409 0
-195 -410 0
-81 -186 0
-82 -187 0
-83 -188 0
-84 -189 0
-85 -190 0
-236 -381 0
-237 -382 0
-238 -383 0
-239 -384 0
-240 -385 0
-11 -116 0
-12 -117 0
-13 -118 0
-14 -119 0
-15 -120 0
-161 -466 0
-162 -467 0
-163 -468 0
-164 -469 0
-165 -470 0
-161 -436 0
-162 -437 0
-163 -438 0
-164 -439 0
-165 -440 0
-26 -181 0
-27 -182 0
-28 -183 0
-29 -184 0
-30 -185 0
-116 -261 0
-117 -262 0
-118 -263 0
-119 -264 0
-120 -265 0
-301 -441 0
-302 -442 0
-303 -443 0
-304 -444 0
-305 -445 0
-171 -196 0
-172 -197 0
-173 -198 0
-174 -199 0
-175 -200 0
-56 -481 0
-57 -482 0
-58 -483 0
-59 -484 0
-60 -485 0
-161 -216 0
-162 -217 0
-163 -218 0
-164 -219 0
-165 -220 0
-201 -351 0
-202 -352 0
-203 -353 0
-204 -354 0
-205 -355 0
-6 -351 0
-7 -352 0
-8 -353 0
-9 -354 0
-10 -355 0
-126 -151 0
-127 -152 0
-128 -153 0
-129 -154 0
-130 -155 0
-381 -471 0
-382 -472 0
-383 -473 0
-384 -474 0
-385 -475 0
-216 -391 0
-217 -392 0
-218 -393 0
-219 -394 0
-220 -395 0
-106 -436 0
-107 -437 0
-108 -438 0
-109 -439 0
-110 -440 0
-106 -166 0
-107 -167 0
-108 -168 0
-109 -169 0
-110 -170 0
-96 -246 0
-97 -247 0
-98 -248 0
-99 -249 0
-100 -250 0
-111 -176 0
-112 -177 0
-113 -178 0
-114 -179 0
-115 -180 0
-241 -461 0
-242 -462 0
-243 -463 0
-244 -464 0
-245 -465 0
-121 -311 0
-122 -312 0
-123 -313 0
-124 -314 0
-125 -315 0
-31 -456 0
-32 -457 0
-33 -458 0
-34 -459 0
-35 -460 0
-66 -316 0
-67 -317 0
-68 -318 0
-69 -319 0
-70 -320 0
-211 -396 0
-212 -397 0
-213 -398 0
-214 -399 0
-215 -400 0
-196 -491 0
-197 -492 0
-198 -493 0
-199 -494 0
-200 -495 0
-86 -366 0
-87 -367 0
-88 -368 0
-89 -369 0
-90 -370 0
-61 -321 0
-62 -322 0
-63 -323 0
-64 -324 0
-65 -325 0
-46 -431 0
-47 -432 0
-48 -433 0
-49 -434 0
-50 -435 0
-266 -391 0
-267 -392 0
-268 -393 0
-269 -394 0
-270 -395 0
-156 -451 0
-157 -452 0
-158 -453 0
-159 -454 0
-160 -455 0
-66 -486 0
-67 -487 0
-68 -488 0
-69 -489 0
-70 -490 0
-171 -441 0
-172 -442 0
-173 -443 0
-174 -444 0
-175 -445 0
-186 -436 0
-187 -437 0
-188 -438 0
-189 -439 0
-190 -440 0
-16 -311 0
-17 -312 0
-18 -313 0
-19 -314 0
-20 -315 0
-71 -226 0
-72 -227 0
-73 -228 0
-74 -229 0
-75 -230 0
-121 -451 0
-122 -452 0
-123 -453 0
-124 -454 0
-125 -455 0
-201 -371 0
-202 -372 0
-203 -373 0
-204 -374 0
-205 -375 0
-76 -486 0
-77 -487 0
-78 -488 0
-79 -489 0
-80 -490 0
-61 -101 0
-62 -102 0
-63 -103 0
-64 -104 0
-65 -105 0
-241 -391 0
-242 -392 0
-243 -393 0
-244 -394 0
-245 -395 0
-151 -356 0
-152 -357 0
-153 -358 0
-154 -359 0
-155 -360 0
-11 -151 0
-12 -152 0
-13 -153 0
-14 -154 0
-15 -155 0
-331 -376 0
-332 -377 0
-333 -378 0
-334 -379 0
-335 -380 0
-326 -476 0
-327 -477 0
-328 -478 0
-329 -479 0
-330 -480 0
-121 -146 0
-122 -147 0
-123 -148 0
-124 -149 0
-125 -150 0
-81 -261 0
-82 -262 0
-83 -263 0
-84 -264 0
-85 -265 0
-281 -396 0
-282 -397 0
-283 -398 0
-284 -399 0
-285 -400 0
-36 -271 0
-37 -272 0
-38 -273 0
-39 -274 0
-40 -275 0
-51 -236 0
-52 -237 0
-53 -238 0
-54 -239 0
-55 -240 0
-346 -396 0
-347 -397 0
-348 -398 0
-349 -399 0
-350 -400 0
-26 -381 0
-27 -382 0
-28 -383 0
-29 -384 0
-30 -385 0
-191 -466 0
-192 -467 0
-193 -468 0
-194 -469 0
-195 -470 0
-6 -171 0
-7 -172 0
-8 -173 0
-9 -174 0
-10 -175 0
-301 -431 0
-302 -432 0
-303 -433 0
-304 -434 0
-305 -435 0
-196 -331 0
-197 -332 0
-198 -333 0
-199 -334 0
-200 -335 0
-241 -326 0
-242 -327 0
-243 -328 0
-244 -329 0
-245 -330 0
-216 -261 0
-217 -262 0
-218 -263 0
-219 -264 0
-220 -265 0
-241 -311 0
-242 -312 0
-243 -313 0
-244 -314 0
-245 -315 0
-166 -316 0
-167 -317 0
-168 -318 0
-169 -319 0
-170 -320 0
-121 -191 0
-122 -192 0
-123 -193 0
-124 -194 0
-125 -195 0
-11 -286 0
-12 -287 0
-13 -288 0
-14 -289 0
-15 -290 0
-306 -481 0
-307 -482 0
-308 -483 0
-309 -484 0
-310 -485 0
-141 -176 0
-142 -177 0
-143 -178 0
-144 -179 0
-145 -180 0
-101 -301 0
-102 -302 0
-103 -303 0
-104 -304 0
-105 -305 0
-16 -326 0
-17 -327 0
-18 -328 0
-19 -329 0
-20 -330 0
-56 -461 0
-57 -462 0
-58 -463 0
-59 -464 0
-60 -465 0
-66 -381 0
-67 -382 0
-68 -383 0
-69 -384 0
-70 -385 0
-296 -396 0
-297 -397 0
-298 -398 0
-299 -399 0
-300 -400 0
-226 -381 0
-227 -382 0
-228 -383 0
-229 -384 0
-230 -385 0
-66 -286 0
-67 -287 0
-68 -288 0
-69 -289 0
-70 -290 0
-351 -476 0
-352 -477 0
-353 -478 0
-354 -479 0
-355 -480 0
-286 -326 0
-287 -327 0
-288 -328 0
-289 -329 0
-290 -330 0
-86 -156 0
-87 -157 0
-88 -158 0
-89 -159 0
-90 -160 0
-186 -336 0
-187 -337 0
-188 -338 0
-189 -339 0
-190 -340 0
-366 -451 0
-367 -452 0
-368 -453 0
-369 -454 0
-370 -455 0
-336 -431 0
-337 -432 0
-338 -433 0
-339 -434 0
-340 -435 0
-216 -306 0
-217 -307 0
-218 -308 0
-219 -309 0
-220 -310 0
-96 -436 0
-97 -437 0
-98 -438 0
-99 -439 0
-100 -440 0
-146 -401 0
-147 -402 0
-148 -403 0
-149 -404 0
-150 -405 0
-116 -191 0
-117 -192 0
-118 -193 0
-119 -194 0
-120 -195 0
-86 -451 0
-87 -452 0
-88 -453 0
-89 -454 0
-90 -455 0
-171 -206 0
-172 -207 0
-173 -208 0
-174 -209 0
-175 -210 0
-61 -391 0
-62 -392 0
-63 -393 0
-64 -394 0
-65 -395 0
-21 -491 0
-22 -492 0
-23 -493 0
-24 -494 0
-25 -495 0
-91 -326 0
-92 -327 0
-93 -328 0
-94 -329 0
-95 -330 0
-141 -251 0
-142 -252 0
-143 -253 0
-144 -254 0
-145 -255 0
-331 -396 0
-332 -397 0
-333 -398 0
-334 -399 0
-335 -400 0
-6 -151 0
-7 -152 0
-8 -153 0
-9 -154 0
-10 -155 0
-396 -491 0
-397 -492 0
-398 -493 0
-399 -494 0
-400 -495 0
-396 -431 0
-397 -432 0
-398 -433 0
-399 -434 0
-400 -435 0
-66 -306 0
-67 -307 0
-68 -308 0
-69 -309 0
-70 -310 0
-101 -331 0
-102 -332 0
-103 -333 0
-104 -334 0
-105 -335 0
-136 -206 0
-137 -207 0
-138 -208 0
-139 -209 0
-140 -210 0
-81 -436 0
-82 -437 0
-83 -438 0
-84 -439 0
-85 -440 0
-11 -246 0
-12 -247 0
-13 -248 0
-14 -249 0
-15 -250 0
-126 -321 0
-127 -322 0
-128 -323 0
-129 -324 0
-130 -325 0
-266 -436 0
-267 -437 0
-268 -438 0
-269 -439 0
-270 -440 0
-256 -496 0
-257 -497 0
-258 -498 0
-259 -499 0
-260 -500 0
-336 -486 0
-337 -487 0
-338 -488 0
-339 -489 0
-340 -490 0
-191 -426 0
-192 -427 0
-193 -428 0
-194 -429 0
-195 -430 0
-81 -441 0
-82 -442 0
-83 -443 0
-84 -444 0
-85 -445 0
-71 -286 0
-72 -287 0
-73 -288 0
-74 -289 0
-75 -290 0
-186 -426 0
-187 -427 0
-188 -428 0
-189 -429 0
-190 -430 0
-36 -471 0
-37 -472 0
-38 -473 0
-39 -474 0
-40 -475 0
-161 -406 0
-162 -407 0
-163 -408 0
-164 -409 0
-165 -410 0
-81 -111 0
-82 -112 0
-83 -113 0
-84 -114 0
-85 -115 0
-21 -426 0
-22 -427 0
-23 -428 0
-24 -429 0
-25 -430 0
-246 -431 0
-247 -432 0
-248 -433 0
-249 -434 0
-250 -435 0
-101 -281 0
-102 -282 0
-103 -283 0
-104 -284 0
-105 -285 0
-131 -371 0
-132 -372 0
-133 -373 0
-134 -374 0
-135 -375 0
-101 -196 0
-102 -197 0
-103 -198 0
-104 -199 0
-105 -200 0
-101 -216 0
-102 -217 0
-103 -218 0
-104 -219 0
-105 -220 0
-16 -316 0
-17 -317 0
-18 -318 0
-19 -319 0
-20 -320 0
-231 -456 0
-232 -457 0
-233 -458 0
-234 -459 0
-235 -460 0
-366 -461 0
-367 -462 0
-368 -463 0
-369 -464 0
-370 -465 0
-126 -306 0
-127 -307 0
-128 -308 0
-129 -309 0
-130 -310 0
-211 -286 0
-212 -287 0
-213 -288 0
-214 -289 0
-215 -290 0
-126 -231 0
-127 -232 0
-128 -233 0
-129 -234 0
-130 -235 0
-291 -386 0
-292 -387 0
-293 -388 0
-294 -389 0
-295 -390 0
-111 -326 0
-112 -327 0
-113 -328 0
-114 -329 0
-115 -330 0
-271 -341 0
-272 -342 0
-273 -343 0
-274 -344 0
-275 -345 0
-61 -461 0
-62 -462 0
-63 -463 0
-64 -464 0
-65 -465 0
-11 -56 0
-12 -57 0
-13 -58 0
-14 -59 0
-15 -60 0
-96 -131 0
-97 -132 0
-98 -133 0
-99 -134 0
-100 -135 0
-91 -261 0
-92 -262 0
-93 -263 0
-94 -264 0
-95 -265 0
-256 -416 0
-257 -417 0
-258 -418 0
-259 -419 0
-260 -420 0
-51 -81 0
-52 -82 0
-53 -83 0
-54 -84 0
-55 -85 0
-186 -211 0
-187 -212 0
-188 -213 0
-189 -214 0
-190 -215 0
-306 -456 0
-307 -457 0
-308 -458 0
-309 -459 0
-310 -460 0
-111 -496 0
-112 -497 0
-113 -498 0
-114 -499 0
-115 -500 0
-61 -486 0
-62 -487 0
-63 -488 0
-64 -489 0
-65 -490 0
-166 -381 0
-167 -382 0
-168 -383 0
-169 -384 0
-170 -385 0
-146 -196 0
-147 -197 0
-148 -198 0
-149 -199 0
-150 -200 0
-301 -371 0
-302 -372 0
-303 -373 0
-304 -374 0
-305 -375 0
-11 -206 0
-12 -207 0
-13 -208 0
-14 -209 0
-15 -210 0
-56 -451 0
-57 -452 0
-58 -453 0
-59 -454 0
-60 -455 0
-76 -311 0
-77 -312 0
-78 -313 0
-79 -314 0
-80 -315 0
